slay05m.py
Ipopt 3.12.8: 
==> Warning: Treating 40 binary and 0 integer variables as continous.


******************************************************************************
This program contains Ipopt, a library for large-scale nonlinear optimization.
 Ipopt is released as open source code under the Eclipse Public License (EPL).
         For more information visit http://projects.coin-or.org/Ipopt
******************************************************************************

This is Ipopt version 3.12.8, running with linear solver ma27.

Number of nonzeros in equality constraint Jacobian...:       40
Number of nonzeros in inequality constraint Jacobian.:      240
Number of nonzeros in Lagrangian Hessian.............:       10

Total number of variables............................:       70
                     variables with only lower bounds:       20
                variables with lower and upper bounds:       50
                     variables with only upper bounds:        0
Total number of equality constraints.................:       10
Total number of inequality constraints...............:       80
        inequality constraints with only lower bounds:       40
   inequality constraints with lower and upper bounds:        0
        inequality constraints with only upper bounds:       40

iter    objective    inf_pr   inf_du lg(mu)  ||d||  lg(rg) alpha_du alpha_pr  ls
   0  1.9611101e+05 2.51e+00 4.74e+01  -1.0 0.00e+00    -  0.00e+00 0.00e+00   0
   1  1.9548870e+05 2.43e+00 4.62e+01  -1.0 8.72e+00    -  9.97e-03 3.79e-02f  1
   2  1.8304817e+05 1.99e+00 4.42e+01  -1.0 8.40e+00    -  1.79e-02 1.74e-01f  1
   3  1.5066604e+05 1.71e+00 3.82e+01  -1.0 9.69e+00    -  1.63e-02 1.37e-01f  1
   4  1.1448375e+05 1.39e+00 3.12e+01  -1.0 8.49e+00    -  1.33e-01 1.82e-01f  1
   5  9.4359889e+04 1.18e+00 2.66e+01  -1.0 7.24e+00    -  3.95e-02 1.45e-01f  1
   6  7.5564627e+04 9.62e-01 2.19e+01  -1.0 6.93e+00    -  8.47e-02 1.75e-01f  1
   7  6.0632360e+04 7.61e-01 1.73e+01  -1.0 5.36e+00    -  5.65e-02 2.05e-01f  1
   8  3.2576918e+04 2.92e-01 7.05e+00  -1.0 1.46e+01    -  8.34e-02 5.77e-01f  1
   9  2.3694847e+04 5.95e-02 2.10e+00  -1.0 1.01e+01    -  3.07e-01 6.72e-01f  1
iter    objective    inf_pr   inf_du lg(mu)  ||d||  lg(rg) alpha_du alpha_pr  ls
  10  2.1737921e+04 2.22e-16 2.66e+00  -1.0 4.68e+00    -  3.62e-01 1.00e+00f  1
  11  2.1554960e+04 1.11e-16 5.42e-01  -1.0 2.92e+00    -  5.88e-01 1.00e+00f  1
  12  2.1564724e+04 0.00e+00 3.05e-02  -1.0 1.43e+00    -  9.68e-01 1.00e+00f  1
  13  2.1371881e+04 0.00e+00 2.00e-07  -1.7 8.72e-01    -  1.00e+00 1.00e+00f  1
  14  2.1332960e+04 1.11e-16 2.83e-08  -2.5 5.71e-01    -  1.00e+00 1.00e+00f  1
  15  2.1326046e+04 0.00e+00 1.50e-09  -3.8 1.74e-01    -  1.00e+00 1.00e+00f  1
  16  2.1325766e+04 2.22e-16 1.50e-09  -3.8 3.14e+00    -  1.00e+00 1.00e+00f  1
  17  2.1325392e+04 2.22e-16 1.84e-11  -5.7 5.02e-03    -  1.00e+00 1.00e+00f  1
  18  2.1325387e+04 2.22e-16 2.55e-14  -8.6 1.40e-04    -  1.00e+00 1.00e+00f  1

Number of Iterations....: 18

                                   (scaled)                 (unscaled)
Objective...............:   2.1872191452092036e+02    2.1325386665789734e+04
Dual infeasibility......:   2.5479618415147343e-14    2.4842627954768659e-12
Constraint violation....:   2.2204460492503131e-16    2.2204460492503131e-16
Complementarity.........:   7.1505321252384406e-09    6.9717688221074790e-07
Overall NLP error.......:   7.1505321252384406e-09    6.9717688221074790e-07


Number of objective function evaluations             = 19
Number of objective gradient evaluations             = 19
Number of equality constraint evaluations            = 19
Number of inequality constraint evaluations          = 19
Number of equality constraint Jacobian evaluations   = 19
Number of inequality constraint Jacobian evaluations = 19
Number of Lagrangian Hessian evaluations             = 18
Total CPU secs in IPOPT (w/o function evaluations)   =      0.008
Total CPU secs in NLP function evaluations           =      0.000

EXIT: Optimal Solution Found.

Time elapsed: 0.138608932495